NAME : tsp_80_sol.txt
COMMENT : OR-Tools Guided Local Search
TYPE : TOUR
DIMENSION : 158
COST : 9634
STATUS : ROUTING_SUCCESS
GAP : 0.00% (Reference Solution)
TOUR_SECTION
1
11
4
51
58
6
87
79
14
49
129
155
125
112
141
109
84
88
27
118
92
39
126
56
16
68
74
80
101
108
3
33
130
7
124
67
137
94
144
147
134
41
60
110
24
116
93
5
85
54
78
131
121
26
128
145
149
12
30
28
64
105
82
113
72
96
53
47
70
76
13
69
9
65
23
132
22
142
117
122
97
40
111
104
38
100
20
66
15
43
136
143
36
18
50
127
98
42
29
48
83
157
17
37
21
19
107
152
75
32
156
63
35
148
81
8
103
2
146
95
154
139
151
114
31
55
135
73
90
71
102
10
59
46
120
115
44
45
158
52
77
106
86
133
91
61
62
89
123
99
34
140
25
138
119
150
57
153
-1
